&CONTROL
    calculation='nscf',
    etot_conv_thr = 1.0d-4,
    forc_conv_thr = 1.0d-3,
    nstep = 100,
    max_seconds = 3500,
    prefix='FeS-194-AFM-ONCV',
    pseudo_dir='./',
    outdir='./tmp',
    verbosity='high'
    !restart_mode='restart'
/

&SYSTEM    
    ibrav = 4,
    a = 3.3794817924,
    c = 5.6579923630,
    cosAB = -0.5,
    nat =  4,
    ntyp = 3,
    nbnd = 104,
    nspin= 2,
    nosym=.true.
    noinv=.true.
    ecutwfc = 100.0,
    ecutrho = 800.0
    starting_magnetization(1) =  0.5,
    starting_magnetization(2) = -0.5,
    input_dft = 'vdw-df2-b86r',
    occupations = 'smearing',
    smearing = 'gauss',
    degauss = 0.01,
/

&ELECTRONS
    startingwfc = 'atomic+random'
    !startingwfc = 'file'
    !startingpot = 'file'
    !diagonalization = 'rmm-davidson'
    !diago_rmm_conv = .TRUE.
    diagonalization = 'cg'
    !diago_david_ndim = 2
    mixing_beta = 0.7
    conv_thr = 1.0d-9
    electron_maxstep = 1000
/

&IONS
    ion_dynamics = 'bfgs'
/

&CELL
    cell_dynamics = 'bfgs'
/     

ATOMIC_SPECIES
    Fe1   55.845 Fe.upf
    Fe2   55.845 Fe.upf
    S    32.06  S.upf

ATOMIC_POSITIONS {crystal}
Fe1     0.000000000         0.000000000         0.000000000
Fe2     0.000000000         0.000000000         0.500000000
S       0.333332986         0.666667044         0.750000060
S       0.666666985         0.333332956         0.249999896

K_POINTS automatic
   24 24 12   1 1 1
